
maximize cost: 18 e_2_2_3_26_0_18 + 1 e_5_5_6_50_0_1 + 3 e_6_6_7_58_0_3 + 3 e_7_6_8_57_0_3
 + 10 e_8_7_9_70_0_10 + 2 e_9_8_10_64_0_2 + 4 e_11_9_11_80_0_4 + 4 e_14_13_14_50_1_4 + 3 e_15_14_15_58_1_3
 + 3 e_16_14_16_57_1_3 + 10 e_17_15_17_70_1_10 + 2 e_18_16_18_64_1_2 + 4 e_20_17_19_80_1_4 + 3 e_23_21_22_50_2_3
 + 2 e_24_22_23_58_2_2 + 2 e_25_22_24_57_2_2 + 10 e_26_23_25_70_2_10 + 3 e_27_24_26_64_2_3 + 4 e_29_25_27_80_2_4
 + 3 e_32_29_30_50_3_3 + 2 e_33_30_31_58_3_2 + 2 e_34_30_32_57_3_2 + 10 e_35_31_33_70_3_10 + 3 e_36_32_34_64_3_3
 + 4 e_38_33_35_80_3_4 + 3 e_41_37_38_50_4_3 + 2 e_42_38_39_58_4_2 + 2 e_43_38_40_57_4_2 + 10 e_44_39_41_70_4_10
 + 3 e_45_40_42_64_4_3 + 4 e_47_41_43_80_4_4 + 3 e_50_45_46_50_5_3 + 2 e_51_46_47_58_5_2 + 2 e_52_46_48_57_5_2
 + 10 e_53_47_49_70_5_10 + 3 e_54_48_50_64_5_3 + 4 e_56_49_51_80_5_4 + 3 e_59_53_54_50_6_3 + 2 e_60_54_55_58_6_2
 + 2 e_61_54_56_57_6_2 + 10 e_62_55_57_70_6_10 + 3 e_63_56_58_64_6_3 + 4 e_65_57_59_80_6_4 + 3 e_68_61_62_50_7_3
 + 2 e_69_62_63_58_7_2 + 2 e_70_62_64_57_7_2 + 10 e_71_63_65_70_7_10 + 3 e_72_64_66_64_7_3 + 4 e_74_65_67_80_7_4
 + 3 e_77_69_70_50_8_3 + 2 e_78_70_71_58_8_2 + 2 e_79_70_72_57_8_2 + 10 e_80_71_73_70_8_10 + 3 e_81_72_74_64_8_3
 + 4 e_83_73_75_80_8_4 + 4 e_86_77_78_50_9_4 + 3 e_87_78_79_58_9_3 + 3 e_88_78_80_57_9_3 + 10 e_89_79_81_70_9_10
 + 2 e_90_80_82_64_9_2 + 4 e_92_81_83_80_9_4 + 3 e_95_85_86_51_10_3 + 13 e_118_108_109_86_0_13

subject to

e_0_0_0_0_0_0 = 0


e_1_1_2_25_0_0 = 1


e_119_109_18446744073709551615_0_0_0 = 1


e_1_1_2_25_0_0 - e_2_2_3_26_0_18 = 0
e_2_2_3_26_0_18 - e_3_3_4_117_0_0 = 0
e_3_3_4_117_0_0 - e_4_4_5_113_0_0 = 0
e_4_4_5_113_0_0 - e_5_5_6_50_0_1 = 0
e_5_5_6_50_0_1 - e_6_6_7_58_0_3 - e_7_6_8_57_0_3 = 0
e_6_6_7_58_0_3 - e_8_7_9_70_0_10 = 0
e_7_6_8_57_0_3 - e_9_8_10_64_0_2 = 0
e_8_7_9_70_0_10 + e_10_10_9_0_0_0 - e_11_9_11_80_0_4 = 0
e_9_8_10_64_0_2 - e_10_10_9_0_0_0 = 0
e_11_9_11_80_0_4 - e_12_11_12_112_0_0 = 0
e_12_11_12_112_0_0 - e_13_12_13_113_1_0 = 0
e_13_12_13_113_1_0 - e_14_13_14_50_1_4 = 0
e_14_13_14_50_1_4 - e_15_14_15_58_1_3 - e_16_14_16_57_1_3 = 0
e_15_14_15_58_1_3 - e_17_15_17_70_1_10 = 0
e_16_14_16_57_1_3 - e_18_16_18_64_1_2 = 0
e_17_15_17_70_1_10 + e_19_18_17_0_0_0 - e_20_17_19_80_1_4 = 0
e_18_16_18_64_1_2 - e_19_18_17_0_0_0 = 0
e_20_17_19_80_1_4 - e_21_19_20_112_1_0 = 0
e_21_19_20_112_1_0 - e_22_20_21_113_2_0 = 0
e_22_20_21_113_2_0 - e_23_21_22_50_2_3 = 0
e_23_21_22_50_2_3 - e_24_22_23_58_2_2 - e_25_22_24_57_2_2 = 0
e_24_22_23_58_2_2 - e_26_23_25_70_2_10 = 0
e_25_22_24_57_2_2 - e_27_24_26_64_2_3 = 0
e_26_23_25_70_2_10 + e_28_26_25_0_0_0 - e_29_25_27_80_2_4 = 0
e_27_24_26_64_2_3 - e_28_26_25_0_0_0 = 0
e_29_25_27_80_2_4 - e_30_27_28_112_2_0 = 0
e_30_27_28_112_2_0 - e_31_28_29_113_3_0 = 0
e_31_28_29_113_3_0 - e_32_29_30_50_3_3 = 0
e_32_29_30_50_3_3 - e_33_30_31_58_3_2 - e_34_30_32_57_3_2 = 0
e_33_30_31_58_3_2 - e_35_31_33_70_3_10 = 0
e_34_30_32_57_3_2 - e_36_32_34_64_3_3 = 0
e_35_31_33_70_3_10 + e_37_34_33_0_0_0 - e_38_33_35_80_3_4 = 0
e_36_32_34_64_3_3 - e_37_34_33_0_0_0 = 0
e_38_33_35_80_3_4 - e_39_35_36_112_3_0 = 0
e_39_35_36_112_3_0 - e_40_36_37_113_4_0 = 0
e_40_36_37_113_4_0 - e_41_37_38_50_4_3 = 0
e_41_37_38_50_4_3 - e_42_38_39_58_4_2 - e_43_38_40_57_4_2 = 0
e_42_38_39_58_4_2 - e_44_39_41_70_4_10 = 0
e_43_38_40_57_4_2 - e_45_40_42_64_4_3 = 0
e_44_39_41_70_4_10 + e_46_42_41_0_0_0 - e_47_41_43_80_4_4 = 0
e_45_40_42_64_4_3 - e_46_42_41_0_0_0 = 0
e_47_41_43_80_4_4 - e_48_43_44_112_4_0 = 0
e_48_43_44_112_4_0 - e_49_44_45_113_5_0 = 0
e_49_44_45_113_5_0 - e_50_45_46_50_5_3 = 0
e_50_45_46_50_5_3 - e_51_46_47_58_5_2 - e_52_46_48_57_5_2 = 0
e_51_46_47_58_5_2 - e_53_47_49_70_5_10 = 0
e_52_46_48_57_5_2 - e_54_48_50_64_5_3 = 0
e_53_47_49_70_5_10 + e_55_50_49_0_0_0 - e_56_49_51_80_5_4 = 0
e_54_48_50_64_5_3 - e_55_50_49_0_0_0 = 0
e_56_49_51_80_5_4 - e_57_51_52_112_5_0 = 0
e_57_51_52_112_5_0 - e_58_52_53_113_6_0 = 0
e_58_52_53_113_6_0 - e_59_53_54_50_6_3 = 0
e_59_53_54_50_6_3 - e_60_54_55_58_6_2 - e_61_54_56_57_6_2 = 0
e_60_54_55_58_6_2 - e_62_55_57_70_6_10 = 0
e_61_54_56_57_6_2 - e_63_56_58_64_6_3 = 0
e_62_55_57_70_6_10 + e_64_58_57_0_0_0 - e_65_57_59_80_6_4 = 0
e_63_56_58_64_6_3 - e_64_58_57_0_0_0 = 0
e_65_57_59_80_6_4 - e_66_59_60_112_6_0 = 0
e_66_59_60_112_6_0 - e_67_60_61_113_7_0 = 0
e_67_60_61_113_7_0 - e_68_61_62_50_7_3 = 0
e_68_61_62_50_7_3 - e_69_62_63_58_7_2 - e_70_62_64_57_7_2 = 0
e_69_62_63_58_7_2 - e_71_63_65_70_7_10 = 0
e_70_62_64_57_7_2 - e_72_64_66_64_7_3 = 0
e_71_63_65_70_7_10 + e_73_66_65_0_0_0 - e_74_65_67_80_7_4 = 0
e_72_64_66_64_7_3 - e_73_66_65_0_0_0 = 0
e_74_65_67_80_7_4 - e_75_67_68_112_7_0 = 0
e_75_67_68_112_7_0 - e_76_68_69_113_8_0 = 0
e_76_68_69_113_8_0 - e_77_69_70_50_8_3 = 0
e_77_69_70_50_8_3 - e_78_70_71_58_8_2 - e_79_70_72_57_8_2 = 0
e_78_70_71_58_8_2 - e_80_71_73_70_8_10 = 0
e_79_70_72_57_8_2 - e_81_72_74_64_8_3 = 0
e_80_71_73_70_8_10 + e_82_74_73_0_0_0 - e_83_73_75_80_8_4 = 0
e_81_72_74_64_8_3 - e_82_74_73_0_0_0 = 0
e_83_73_75_80_8_4 - e_84_75_76_112_8_0 = 0
e_84_75_76_112_8_0 - e_85_76_77_113_9_0 = 0
e_85_76_77_113_9_0 - e_86_77_78_50_9_4 = 0
e_86_77_78_50_9_4 - e_87_78_79_58_9_3 - e_88_78_80_57_9_3 = 0
e_87_78_79_58_9_3 - e_89_79_81_70_9_10 = 0
e_88_78_80_57_9_3 - e_90_80_82_64_9_2 = 0
e_89_79_81_70_9_10 + e_91_82_81_0_0_0 - e_92_81_83_80_9_4 = 0
e_90_80_82_64_9_2 - e_91_82_81_0_0_0 = 0
e_92_81_83_80_9_4 - e_93_83_84_112_9_0 = 0
e_93_83_84_112_9_0 - e_94_84_85_113_10_0 = 0
e_94_84_85_113_10_0 - e_95_85_86_51_10_3 = 0
e_95_85_86_51_10_3 - e_96_86_87_120_9_0 = 0
e_96_86_87_120_9_0 - e_97_87_88_111_9_0 = 0
e_97_87_88_111_9_0 - e_98_88_89_120_8_0 = 0
e_98_88_89_120_8_0 - e_99_89_90_111_8_0 = 0
e_99_89_90_111_8_0 - e_100_90_91_120_7_0 = 0
e_100_90_91_120_7_0 - e_101_91_92_111_7_0 = 0
e_101_91_92_111_7_0 - e_102_92_93_120_6_0 = 0
e_102_92_93_120_6_0 - e_103_93_94_111_6_0 = 0
e_103_93_94_111_6_0 - e_104_94_95_120_5_0 = 0
e_104_94_95_120_5_0 - e_105_95_96_111_5_0 = 0
e_105_95_96_111_5_0 - e_106_96_97_120_4_0 = 0
e_106_96_97_120_4_0 - e_107_97_98_111_4_0 = 0
e_107_97_98_111_4_0 - e_108_98_99_120_3_0 = 0
e_108_98_99_120_3_0 - e_109_99_100_111_3_0 = 0
e_109_99_100_111_3_0 - e_110_100_101_120_2_0 = 0
e_110_100_101_120_2_0 - e_111_101_102_111_2_0 = 0
e_111_101_102_111_2_0 - e_112_102_103_120_1_0 = 0
e_112_102_103_120_1_0 - e_113_103_104_111_1_0 = 0
e_113_103_104_111_1_0 - e_114_104_105_120_0_0 = 0
e_114_104_105_120_0_0 - e_115_105_106_111_0_0 = 0
e_115_105_106_111_0_0 - e_116_106_107_119_0_0 = 0
e_116_106_107_119_0_0 - e_117_107_108_118_0_0 = 0
e_117_107_108_118_0_0 - e_118_108_109_86_0_13 = 0
e_118_108_109_86_0_13 - e_119_109_18446744073709551615_0_0_0 = 0


+1 e_114_104_105_120_0_0 -1 e_12_11_12_112_0_0 = 0
+1 e_112_102_103_120_1_0 -1 e_21_19_20_112_1_0 = 0
+1 e_110_100_101_120_2_0 -1 e_30_27_28_112_2_0 = 0
+1 e_108_98_99_120_3_0 -1 e_39_35_36_112_3_0 = 0
+1 e_106_96_97_120_4_0 -1 e_48_43_44_112_4_0 = 0
+1 e_104_94_95_120_5_0 -1 e_57_51_52_112_5_0 = 0
+1 e_102_92_93_120_6_0 -1 e_66_59_60_112_6_0 = 0
+1 e_100_90_91_120_7_0 -1 e_75_67_68_112_7_0 = 0
+1 e_98_88_89_120_8_0 -1 e_84_75_76_112_8_0 = 0
+1 e_96_86_87_120_9_0 -1 e_93_83_84_112_9_0 = 0
+1 e_116_106_107_119_0_0 -1 e_3_3_4_117_0_0 = 0


+10 e_3_3_4_117_0_0 -1 e_12_11_12_112_0_0 -1 e_21_19_20_112_1_0 -1 e_30_27_28_112_2_0 -1 e_39_35_36_112_3_0 -1 e_48_43_44_112_4_0 -1 e_57_51_52_112_5_0 -1 e_66_59_60_112_6_0 -1 e_75_67_68_112_7_0 -1 e_84_75_76_112_8_0 -1 e_93_83_84_112_9_0 >= 0




-1 e_8_7_9_70_0_10 -1 e_17_15_17_70_1_10 -1 e_26_23_25_70_2_10 -1 e_35_31_33_70_3_10 -1 e_44_39_41_70_4_10 -1 e_53_47_49_70_5_10 -1 e_62_55_57_70_6_10 -1 e_71_63_65_70_7_10 -1 e_80_71_73_70_8_10 -1 e_89_79_81_70_9_10 +1 e_9_8_10_64_0_2 +1 e_18_16_18_64_1_2 +1 e_27_24_26_64_2_3 +1 e_36_32_34_64_3_3 +1 e_45_40_42_64_4_3 +1 e_54_48_50_64_5_3 +1 e_63_56_58_64_6_3 +1 e_72_64_66_64_7_3 +1 e_81_72_74_64_8_3 +1 e_90_80_82_64_9_2 >= 1


general
e_0_0_0_0_0_0
e_1_1_2_25_0_0
e_2_2_3_26_0_18
e_3_3_4_117_0_0
e_4_4_5_113_0_0
e_5_5_6_50_0_1
e_6_6_7_58_0_3
e_7_6_8_57_0_3
e_8_7_9_70_0_10
e_9_8_10_64_0_2
e_11_9_11_80_0_4
e_10_10_9_0_0_0
e_12_11_12_112_0_0
e_13_12_13_113_1_0
e_14_13_14_50_1_4
e_15_14_15_58_1_3
e_16_14_16_57_1_3
e_17_15_17_70_1_10
e_18_16_18_64_1_2
e_20_17_19_80_1_4
e_19_18_17_0_0_0
e_21_19_20_112_1_0
e_22_20_21_113_2_0
e_23_21_22_50_2_3
e_24_22_23_58_2_2
e_25_22_24_57_2_2
e_26_23_25_70_2_10
e_27_24_26_64_2_3
e_29_25_27_80_2_4
e_28_26_25_0_0_0
e_30_27_28_112_2_0
e_31_28_29_113_3_0
e_32_29_30_50_3_3
e_33_30_31_58_3_2
e_34_30_32_57_3_2
e_35_31_33_70_3_10
e_36_32_34_64_3_3
e_38_33_35_80_3_4
e_37_34_33_0_0_0
e_39_35_36_112_3_0
e_40_36_37_113_4_0
e_41_37_38_50_4_3
e_42_38_39_58_4_2
e_43_38_40_57_4_2
e_44_39_41_70_4_10
e_45_40_42_64_4_3
e_47_41_43_80_4_4
e_46_42_41_0_0_0
e_48_43_44_112_4_0
e_49_44_45_113_5_0
e_50_45_46_50_5_3
e_51_46_47_58_5_2
e_52_46_48_57_5_2
e_53_47_49_70_5_10
e_54_48_50_64_5_3
e_56_49_51_80_5_4
e_55_50_49_0_0_0
e_57_51_52_112_5_0
e_58_52_53_113_6_0
e_59_53_54_50_6_3
e_60_54_55_58_6_2
e_61_54_56_57_6_2
e_62_55_57_70_6_10
e_63_56_58_64_6_3
e_65_57_59_80_6_4
e_64_58_57_0_0_0
e_66_59_60_112_6_0
e_67_60_61_113_7_0
e_68_61_62_50_7_3
e_69_62_63_58_7_2
e_70_62_64_57_7_2
e_71_63_65_70_7_10
e_72_64_66_64_7_3
e_74_65_67_80_7_4
e_73_66_65_0_0_0
e_75_67_68_112_7_0
e_76_68_69_113_8_0
e_77_69_70_50_8_3
e_78_70_71_58_8_2
e_79_70_72_57_8_2
e_80_71_73_70_8_10
e_81_72_74_64_8_3
e_83_73_75_80_8_4
e_82_74_73_0_0_0
e_84_75_76_112_8_0
e_85_76_77_113_9_0
e_86_77_78_50_9_4
e_87_78_79_58_9_3
e_88_78_80_57_9_3
e_89_79_81_70_9_10
e_90_80_82_64_9_2
e_92_81_83_80_9_4
e_91_82_81_0_0_0
e_93_83_84_112_9_0
e_94_84_85_113_10_0
e_95_85_86_51_10_3
e_96_86_87_120_9_0
e_97_87_88_111_9_0
e_98_88_89_120_8_0
e_99_89_90_111_8_0
e_100_90_91_120_7_0
e_101_91_92_111_7_0
e_102_92_93_120_6_0
e_103_93_94_111_6_0
e_104_94_95_120_5_0
e_105_95_96_111_5_0
e_106_96_97_120_4_0
e_107_97_98_111_4_0
e_108_98_99_120_3_0
e_109_99_100_111_3_0
e_110_100_101_120_2_0
e_111_101_102_111_2_0
e_112_102_103_120_1_0
e_113_103_104_111_1_0
e_114_104_105_120_0_0
e_115_105_106_111_0_0
e_116_106_107_119_0_0
e_117_107_108_118_0_0
e_118_108_109_86_0_13
e_119_109_18446744073709551615_0_0_0


end
